c   #vars: 45   #clauses: 192   #literals: 566
c 
p cnf 45 192
21 22 38 39 0
8 9 21 22 0
14 -27 28 29 0
-2 -3 0
15 16 -30 40 0
-4 -5 0
-6 -7 0
-8 -9 0
-10 -11 0
-12 -13 0
20 -21 -36 45 0
-15 -16 0
14 17 -29 -43 0
-18 -19 0
6 7 33 34 0
10 11 33 34 0
-15 17 -18 -19 0
2 3 -14 27 0
-21 -22 0
-23 -24 0
-25 -26 0
-15 30 -34 40 0
-28 -29 0
25 26 -28 37 0
-31 -32 0
-33 -34 0
-35 -36 0
-38 -39 0
12 13 -30 40 0
12 13 -15 40 0
-2 14 27 -29 0
2 3 31 32 0
-41 -42 0
17 -18 -19 -43 0
-43 -44 0
12 13 -21 45 0
12 13 -20 45 0
-8 14 27 -29 0
14 17 -27 -43 0
6 7 20 -36 0
4 5 23 24 0
6 7 20 -45 0
2 3 43 44 0
14 -17 28 29 0
-1 -22 0
15 16 17 -43 0
10 11 30 -34 0
-1 -24 0
10 11 30 -40 0
-1 -44 0
18 19 35 36 0
-4 28 29 37 0
1 23 24 -43 0
23 24 38 39 0
-2 -25 0
-3 -26 0
-11 -15 30 40 0
-3 -27 0
-2 -31 0
-3 -32 0
-8 14 -17 27 0
-2 -38 0
-3 -39 0
-2 -43 0
-3 -44 0
-12 15 16 40 0
-4 -23 0
-5 -24 0
-14 17 -18 -19 0
-4 -31 0
-5 -32 0
4 5 33 34 0
-4 -33 0
-5 -34 0
-5 -37 0
20 35 36 -45 0
-6 -20 0
2 3 -8 27 0
30 33 34 -40 0
-6 -28 0
-7 -29 0
1 21 22 -23 0
-6 -33 0
-7 -34 0
14 -15 17 -27 0
-6 -35 0
-7 -36 0
15 16 43 44 0
-25 28 29 37 0
-8 -18 0
-9 -19 0
-2 -3 31 32 0
-8 -21 0
-9 -22 0
10 11 35 36 0
-12 30 -34 40 0
-9 -27 0
14 -15 17 -29 0
-8 -35 0
-9 -36 0
12 13 21 22 0
-8 -41 0
-9 -42 0
6 7 28 29 0
-10 -18 0
-11 -19 0
4 5 31 32 0
-10 -30 0
-4 25 26 37 0
28 29 38 39 0
-10 -33 0
-11 -34 0
-10 -35 0
-11 -36 0
-7 20 35 36 0
-10 -41 0
-11 -42 0
15 16 31 32 0
-12 -21 0
-13 -22 0
-14 17 43 44 0
-13 -40 0
-11 30 33 34 0
8 9 35 36 0
-13 -45 0
18 19 43 44 0
1 -23 43 44 0
-7 20 -21 45 0
8 9 41 42 0
-11 -12 30 40 0
-12 20 -36 45 0
-20 21 22 45 0
-14 -28 0
-7 -12 20 45 0
1 -21 43 44 0
-16 -17 0
-15 -31 0
-16 -32 0
-15 17 43 44 0
-16 -40 0
-15 -43 0
-16 -44 0
2 3 -31 -32 0
-17 -44 0
10 11 41 42 0
-18 -35 0
-19 -36 0
2 3 38 39 0
-18 -41 0
-19 -42 0
21 22 41 42 0
-18 -43 0
-19 -44 0
18 19 41 42 0
1 -21 23 24 0
-12 21 22 45 0
-20 -35 0
8 9 -14 27 0
10 11 18 19 0
25 26 33 34 0
-2 8 9 27 0
23 24 41 42 0
-21 -38 0
-22 -39 0
2 3 25 26 0
-21 -41 0
-22 -42 0
28 29 43 44 0
8 9 18 19 0
-22 -45 0
-23 -38 0
-24 -39 0
6 7 35 36 0
-23 -41 0
-24 -42 0
1 21 22 -43 0
-25 -31 0
-26 -32 0
-25 -33 0
-26 -34 0
-26 -37 0
-29 -37 0
-2 14 -17 27 0
-28 -38 0
-29 -39 0
25 26 31 32 0
-28 -43 0
-29 -44 0
-14 15 16 17 0
-30 -33 0
4 5 -28 37 0
4 5 -25 37 0
